p tw 25 75
0 1
0 2
0 12
0 14
0 8
0 16
0 17
0 23
0 19
1 10
1 11
1 22
1 7
2 5
2 6
2 9
2 20
2 22
2 12
2 21
3 4
3 20
3 19
3 14
3 22
3 16
3 18
4 17
4 7
4 6
5 10
5 21
5 19
5 20
6 21
6 7
6 10
6 24
7 8
7 11
7 17
8 13
8 18
9 11
9 16
9 19
9 20
9 18
10 13
10 20
10 24
10 18
10 23
11 17
11 19
11 23
11 16
11 12
12 15
12 19
12 23
12 18
13 20
13 15
14 18
14 17
14 22
15 16
15 19
17 24
18 19
20 21
20 22
21 23
22 23
